MARKOV
226
 2 2 2 2 2 2 2 2 2 2 2 2 2 2 2 2 2 2 2 2 2 2 2 2 2 2 2 2 2 2 2 2 2 2 2 2 2 2 2 2 2 2 2 2 2 2 2 2 2 2 2 2 2 2 2 2 2 2 2 2 2 2 2 2 2 2 2 2 2 2 2 2 2 2 2 2 2 2 2 2 2 2 2 2 2 2 2 2 2 2 2 2 2 2 2 2 2 2 2 2 2 2 2 2 2 2 2 2 2 2 2 2 2 2 2 2 2 2 2 2 2 2 2 2 2 2 2 2 2 2 2 2 2 2 2 2 2 2 2 2 2 2 2 2 2 2 2 2 2 2 2 2 2 2 2 2 2 2 2 2 2 2 2 2 2 2 2 2 2 2 2 2 2 2 2 2 2 2 2 2 2 2 2 2 2 2 2 2 2 2 2 2 2 2 2 2 2 2 2 2 2 2 2 2 2 2 2 2 2 2 2 2 2 2 2 2 2 2 2 2 2 2 2 2 2 2
843
1	0 
1	1 
1	2 
1	3 
1	4 
1	5 
1	6 
1	7 
1	8 
1	9 
1	10 
1	11 
1	12 
1	13 
1	14 
1	15 
1	16 
1	17 
1	18 
1	19 
1	20 
1	21 
1	22 
1	23 
1	24 
1	25 
1	26 
1	27 
1	28 
1	29 
1	30 
1	31 
1	32 
1	33 
1	34 
1	35 
1	36 
1	37 
1	38 
1	39 
1	40 
1	41 
1	42 
1	43 
1	44 
1	45 
1	46 
1	47 
1	48 
1	49 
1	50 
1	51 
1	52 
1	53 
1	54 
1	55 
1	56 
1	57 
1	58 
1	59 
1	60 
1	61 
1	62 
1	63 
1	64 
1	65 
1	66 
1	67 
1	68 
1	69 
1	70 
1	71 
1	72 
1	73 
1	74 
1	75 
1	76 
1	77 
1	78 
1	79 
1	80 
1	81 
1	82 
1	83 
1	84 
1	85 
1	86 
1	87 
1	88 
1	89 
1	90 
1	91 
1	92 
1	93 
1	94 
1	95 
1	96 
1	97 
1	98 
1	99 
1	100 
1	101 
1	102 
1	103 
1	104 
1	105 
1	106 
1	107 
1	108 
1	109 
1	110 
1	111 
1	112 
1	113 
1	114 
1	115 
1	116 
1	117 
1	118 
1	119 
1	120 
1	121 
1	122 
1	123 
1	124 
1	125 
1	126 
1	127 
1	128 
1	129 
1	130 
1	131 
1	132 
1	133 
1	134 
1	135 
1	136 
1	137 
1	138 
1	139 
1	140 
1	141 
1	142 
1	143 
1	144 
1	145 
1	146 
1	147 
1	148 
1	149 
1	150 
1	151 
1	152 
1	153 
1	154 
1	155 
1	156 
1	157 
1	158 
1	159 
1	160 
1	161 
1	162 
1	163 
1	164 
1	165 
1	166 
1	167 
1	168 
1	169 
1	170 
1	171 
1	172 
1	173 
1	174 
1	175 
1	176 
1	177 
1	178 
1	179 
1	180 
1	181 
1	182 
1	183 
1	184 
1	185 
1	186 
1	187 
1	188 
1	189 
1	190 
1	191 
1	192 
1	193 
1	194 
1	195 
1	196 
1	197 
1	198 
1	199 
1	200 
1	201 
1	202 
1	203 
1	204 
1	205 
1	206 
1	207 
1	208 
1	209 
1	210 
1	211 
1	212 
1	213 
1	214 
1	215 
1	216 
1	217 
1	218 
1	219 
1	220 
1	221 
1	222 
1	223 
1	224 
1	225 
2	1 2 
2	1 3 
2	1 86 
2	1 88 
2	2 3 
2	2 86 
2	2 122 
2	2 123 
2	2 156 
2	2 158 
2	3 81 
2	3 85 
2	3 88 
2	3 158 
2	3 159 
2	4 6 
2	4 8 
2	4 71 
2	4 194 
2	5 6 
2	5 7 
2	5 8 
2	5 11 
2	5 12 
2	6 8 
2	6 11 
2	7 8 
2	7 12 
2	7 13 
2	7 131 
2	7 191 
2	7 193 
2	8 191 
2	8 194 
2	9 10 
2	9 11 
2	9 12 
2	9 14 
2	10 14 
2	11 12 
2	12 13 
2	12 14 
2	13 14 
2	13 131 
2	13 132 
2	14 128 
2	14 132 
2	15 16 
2	15 18 
2	15 218 
2	15 219 
2	15 220 
2	16 17 
2	16 18 
2	16 80 
2	16 82 
2	16 218 
2	17 18 
2	17 47 
2	17 50 
2	17 80 
2	17 89 
2	18 49 
2	18 50 
2	18 220 
2	19 20 
2	19 23 
2	19 40 
2	20 21 
2	20 23 
2	20 205 
2	20 206 
2	21 22 
2	21 23 
2	21 125 
2	21 205 
2	22 23 
2	22 43 
2	22 125 
2	22 127 
2	22 165 
2	22 217 
2	23 40 
2	23 42 
2	23 43 
2	24 25 
2	24 26 
2	24 27 
2	24 52 
2	24 112 
2	24 121 
2	25 27 
2	25 52 
2	25 53 
2	26 27 
2	26 110 
2	26 112 
2	28 29 
2	28 32 
2	28 68 
2	28 70 
2	28 187 
2	28 188 
2	28 200 
2	29 30 
2	29 32 
2	29 67 
2	29 68 
2	30 32 
2	30 34 
2	30 35 
2	30 67 
2	31 33 
2	31 34 
2	31 35 
2	31 170 
2	31 207 
2	31 210 
2	32 33 
2	32 34 
2	32 188 
2	33 34 
2	33 170 
2	33 177 
2	33 188 
2	33 190 
2	34 35 
2	35 207 
2	36 37 
2	36 39 
2	36 131 
2	36 193 
2	36 211 
2	37 38 
2	37 39 
2	37 117 
2	37 119 
2	37 193 
2	37 195 
2	38 39 
2	38 76 
2	38 79 
2	38 119 
2	39 76 
2	39 211 
2	39 212 
2	40 41 
2	40 42 
2	41 42 
2	42 43 
2	43 165 
2	44 45 
2	44 46 
2	44 147 
2	44 187 
2	44 189 
2	44 198 
2	45 46 
2	45 166 
2	45 198 
2	45 199 
2	45 221 
2	46 83 
2	46 144 
2	46 147 
2	46 218 
2	46 221 
2	47 50 
2	47 87 
2	47 89 
2	47 93 
2	47 97 
2	48 49 
2	48 50 
2	48 94 
2	48 97 
2	48 106 
2	48 139 
2	48 220 
2	49 50 
2	49 220 
2	50 97 
2	51 53 
2	51 54 
2	51 150 
2	51 152 
2	51 182 
2	52 53 
2	52 54 
2	52 121 
2	53 54 
2	54 121 
2	54 182 
2	55 57 
2	55 58 
2	55 90 
2	55 169 
2	55 171 
2	55 208 
2	56 57 
2	56 58 
2	56 59 
2	56 61 
2	57 58 
2	57 60 
2	57 90 
2	57 92 
2	58 59 
2	58 98 
2	58 102 
2	58 169 
2	59 102 
2	59 103 
2	60 61 
2	60 62 
2	60 92 
2	61 62 
2	63 64 
2	63 65 
2	63 94 
2	63 95 
2	63 96 
2	64 94 
2	64 138 
2	64 141 
2	64 223 
2	65 93 
2	65 95 
2	65 215 
2	66 67 
2	66 68 
2	66 69 
2	66 70 
2	66 72 
2	66 73 
2	66 74 
2	67 68 
2	67 69 
2	68 70 
2	69 74 
2	70 73 
2	70 200 
2	71 72 
2	71 74 
2	71 194 
2	72 73 
2	72 74 
2	72 118 
2	72 192 
2	72 194 
2	73 118 
2	73 200 
2	73 201 
2	75 76 
2	75 78 
2	75 149 
2	75 153 
2	75 224 
2	75 225 
2	76 78 
2	76 79 
2	76 149 
2	76 212 
2	77 78 
2	77 79 
2	77 104 
2	77 120 
2	77 225 
2	78 79 
2	78 225 
2	79 115 
2	79 119 
2	79 120 
2	80 82 
2	80 88 
2	80 89 
2	81 82 
2	81 83 
2	81 85 
2	81 88 
2	81 145 
2	82 83 
2	82 88 
2	82 218 
2	83 144 
2	83 145 
2	83 218 
2	84 85 
2	84 145 
2	84 146 
2	84 157 
2	84 159 
2	84 161 
2	84 175 
2	84 178 
2	85 145 
2	85 159 
2	86 87 
2	86 88 
2	86 89 
2	86 122 
2	86 126 
2	87 89 
2	87 93 
2	87 126 
2	87 214 
2	87 216 
2	88 89 
2	90 91 
2	90 92 
2	90 208 
2	91 207 
2	91 208 
2	91 209 
2	93 95 
2	93 97 
2	93 215 
2	93 216 
2	94 96 
2	94 97 
2	94 139 
2	94 141 
2	95 96 
2	95 97 
2	96 97 
2	98 99 
2	98 100 
2	98 102 
2	98 169 
2	99 100 
2	99 101 
2	99 102 
2	99 133 
2	99 134 
2	100 134 
2	100 161 
2	100 162 
2	100 169 
2	100 174 
2	101 102 
2	101 103 
2	101 133 
2	101 136 
2	102 103 
2	104 105 
2	104 107 
2	104 180 
2	104 181 
2	104 225 
2	105 107 
2	105 108 
2	105 120 
2	105 186 
2	106 108 
2	106 139 
2	106 140 
2	106 185 
2	106 186 
2	106 220 
2	107 108 
2	107 142 
2	107 181 
2	108 140 
2	108 142 
2	108 186 
2	109 110 
2	109 111 
2	109 113 
2	109 114 
2	109 222 
2	110 112 
2	110 113 
2	111 114 
2	111 138 
2	111 143 
2	111 222 
2	112 113 
2	112 121 
2	112 179 
2	113 114 
2	113 179 
2	114 143 
2	114 179 
2	114 181 
2	115 116 
2	115 119 
2	115 120 
2	115 168 
2	115 196 
2	116 120 
2	116 167 
2	116 168 
2	116 184 
2	117 118 
2	117 119 
2	117 195 
2	117 196 
2	118 192 
2	118 195 
2	118 196 
2	118 201 
2	119 196 
2	120 184 
2	120 186 
2	121 179 
2	121 182 
2	121 183 
2	122 123 
2	122 126 
2	123 124 
2	123 126 
2	123 127 
2	123 156 
2	124 125 
2	124 127 
2	124 156 
2	124 203 
2	125 127 
2	125 203 
2	125 205 
2	126 127 
2	126 214 
2	126 217 
2	127 217 
2	128 129 
2	128 130 
2	128 132 
2	129 130 
2	129 213 
2	130 131 
2	130 132 
2	130 211 
2	130 213 
2	131 132 
2	131 193 
2	131 211 
2	133 134 
2	133 135 
2	133 136 
2	134 135 
2	134 154 
2	134 162 
2	135 136 
2	135 137 
2	135 154 
2	135 155 
2	135 204 
2	136 137 
2	137 202 
2	137 204 
2	138 140 
2	138 141 
2	138 143 
2	138 222 
2	138 223 
2	139 140 
2	139 141 
2	140 141 
2	140 142 
2	140 143 
2	142 143 
2	142 181 
2	143 181 
2	144 145 
2	144 146 
2	144 147 
2	145 146 
2	146 147 
2	146 175 
2	147 175 
2	147 177 
2	147 189 
2	147 190 
2	148 149 
2	148 150 
2	148 151 
2	148 152 
2	149 150 
2	149 151 
2	149 153 
2	149 212 
2	149 213 
2	150 152 
2	150 153 
2	150 182 
2	150 224 
2	151 213 
2	153 224 
2	154 155 
2	154 156 
2	154 160 
2	154 162 
2	155 156 
2	155 203 
2	155 204 
2	156 158 
2	156 160 
2	156 203 
2	157 159 
2	157 160 
2	157 161 
2	157 162 
2	158 159 
2	158 160 
2	159 160 
2	160 162 
2	161 162 
2	161 174 
2	161 178 
2	163 164 
2	163 165 
2	163 214 
2	163 216 
2	163 217 
2	164 165 
2	164 215 
2	164 216 
2	165 217 
2	166 167 
2	166 168 
2	166 199 
2	166 221 
2	167 168 
2	167 184 
2	167 185 
2	167 219 
2	167 221 
2	168 196 
2	168 197 
2	168 199 
2	169 171 
2	169 174 
2	170 172 
2	170 173 
2	170 176 
2	170 177 
2	170 210 
2	171 172 
2	171 173 
2	171 174 
2	171 208 
2	172 173 
2	172 208 
2	172 209 
2	172 210 
2	173 174 
2	173 176 
2	173 178 
2	174 178 
2	175 176 
2	175 177 
2	175 178 
2	176 177 
2	176 178 
2	177 190 
2	179 180 
2	179 181 
2	179 183 
2	180 181 
2	180 183 
2	180 225 
2	182 183 
2	182 224 
2	183 224 
2	183 225 
2	184 185 
2	184 186 
2	185 186 
2	185 219 
2	185 220 
2	187 188 
2	187 189 
2	187 198 
2	187 200 
2	188 189 
2	188 190 
2	189 190 
2	191 192 
2	191 193 
2	191 194 
2	191 195 
2	192 194 
2	192 195 
2	193 195 
2	196 197 
2	196 201 
2	197 199 
2	197 200 
2	197 201 
2	198 199 
2	198 200 
2	199 200 
2	200 201 
2	202 204 
2	202 206 
2	203 204 
2	203 205 
2	204 205 
2	204 206 
2	205 206 
2	207 209 
2	207 210 
2	208 209 
2	209 210 
2	211 212 
2	211 213 
2	212 213 
2	214 216 
2	214 217 
2	215 216 
2	218 219 
2	218 221 
2	219 220 
2	219 221 
2	222 223 
2	224 225 
0	

2
 0.252912 1
2
 0.151291 1
2
 1 0.708045
2
 0.0904729 1
2
 1 0.0564297
2
 1 0.039159
2
 1 0.0272662
2
 1 0.0398578
2
 1 0.0749981
2
 1 0.0204083
2
 1 0.0570262
2
 1 0.0329261
2
 1 0.121725
2
 1 0.0558724
2
 1 0.0311283
2
 0.372617 1
2
 0.316271 1
2
 0.446048 1
2
 0.294473 1
2
 1 0.271387
2
 1 0.256628
2
 1 0.427296
2
 1 0.473773
2
 1 0.133913
2
 1 0.285626
2
 1 0.20569
2
 1 0.0977014
2
 1 0.0981365
2
 1 0.218689
2
 1 0.0859464
2
 1 0.063544
2
 1 0.115634
2
 1 0.12589
2
 1 0.230127
2
 1 0.0920037
2
 1 0.0602351
2
 1 0.237246
2
 1 0.574316
2
 1 0.298327
2
 1 0.528099
2
 1 0.0961984
2
 1 0.107955
2
 1 0.112417
2
 1 0.127339
2
 0.342395 1
2
 0.161458 1
2
 0.213167 1
2
 0.172019 1
2
 0.232609 1
2
 0.117777 1
2
 0.45607 1
2
 1 0.311632
2
 1 0.115311
2
 1 0.0939539
2
 1 0.351206
2
 1 0.0709746
2
 1 0.0436865
2
 1 0.0777395
2
 1 0.0848339
2
 1 0.0614167
2
 1 0.0483729
2
 1 0.0643651
2
 1 0.0405633
2
 1 0.47194
2
 1 0.186177
2
 1 0.171979
2
 1 0.0944472
2
 1 0.0700354
2
 1 0.0819272
2
 1 0.0459369
2
 1 0.172634
2
 1 0.0380485
2
 1 0.640525
2
 1 0.754874
2
 1 0.0625528
2
 1 0.479625
2
 1 0.199565
2
 0.585981 1
2
 1 0.552899
2
 1 0.392252
2
 0.195524 1
2
 0.19777 1
2
 0.513188 1
2
 0.512066 1
2
 0.127594 1
2
 0.118929 1
2
 1 0.410538
2
 1 0.594425
2
 0.19083 1
2
 0.246202 1
2
 1 0.0437534
2
 1 0.0470457
2
 1 0.027982
2
 1 0.32456
2
 1 0.67908
2
 1 0.244
2
 1 0.292586
2
 1 0.786076
2
 1 0.170023
2
 1 0.248287
2
 1 0.156487
2
 1 0.199105
2
 1 0.0551168
2
 1 0.0967888
2
 0.307905 1
2
 0.428186 1
2
 0.277275 1
2
 0.17243 1
2
 0.252253 1
2
 1 0.131955
2
 1 0.125225
2
 1 0.264221
2
 1 0.177366
2
 1 0.112398
2
 1 0.213297
2
 0.701858 1
2
 0.473557 1
2
 0.879675 1
2
 0.198991 1
2
 0.508441 1
2
 0.268136 1
2
 1 0.378739
2
 1 0.768537
2
 1 0.408145
2
 1 0.269969
2
 1 0.318465
2
 1 0.259417
2
 1 0.995108
2
 1 0.0259773
2
 1 0.0642806
2
 1 0.10067
2
 1 0.11646
2
 1 0.041872
2
 1 0.148143
2
 1 0.209872
2
 1 0.222834
2
 1 0.11183
2
 1 0.202106
2
 1 0.151846
2
 0.752475 1
2
 1 0.510747
2
 1 0.354114
2
 1 0.896654
2
 1 0.299446
2
 0.112259 1
2
 0.201164 1
2
 0.415799 1
2
 0.290313 1
2
 1 0.221793
2
 1 0.178454
2
 1 0.261482
2
 1 0.082795
2
 1 0.257136
2
 1 0.200879
2
 1 0.181785
2
 1 0.38629
2
 1 0.334825
2
 1 0.467385
2
 0.805485 1
2
 0.416749 1
2
 1 0.312053
2
 1 0.280694
2
 1 0.246491
2
 1 0.603608
2
 1 0.103835
2
 1 0.121707
2
 0.333004 1
2
 0.42884 1
2
 0.533078 1
2
 1 0.233452
2
 1 0.0782594
2
 1 0.0548971
2
 1 0.0449048
2
 1 0.159948
2
 1 0.159065
2
 1 0.755408
2
 1 0.211584
2
 1 0.597618
2
 1 0.478906
2
 1 0.333609
2
 1 0.431056
2
 1 0.302383
2
 1 0.278661
2
 1 0.60639
2
 0.598372 1
2
 0.965081 1
2
 0.847278 1
2
 0.623525 1
2
 1 0.210321
2
 0.875912 1
2
 1 0.547104
2
 1 0.0586083
2
 1 0.611097
2
 1 0.100701
2
 1 0.076355
2
 1 0.313616
2
 0.880424 1
2
 1 0.832052
2
 0.265113 1
2
 0.444034 1
2
 0.77948 1
2
 0.451448 1
2
 1 0.515994
2
 1 0.350184
2
 1 0.386316
2
 1 0.299432
2
 1 0.276025
2
 1 0.0522604
2
 1 0.0891604
2
 1 0.0725438
2
 1 0.168656
2
 1 0.20833
2
 1 0.170522
2
 1 0.0723736
2
 1 0.220099
2
 1 0.279414
2
 1 0.357316
2
 1 0.223179
2
 0.298057 1
2
 0.612482 1
2
 0.511089 1
2
 0.465076 1
2
 1 0.101974
2
 1 0.112124
2
 0.418348 1
2
 0.241269 1
4
 0.979254 0.301013 0.301013 1
4
 0.98267 0.30166 0.30166 1
4
 0.973389 0.295131 0.295131 1
4
 0.977497 0.296568 0.296568 1
4
 0.983276 0.303712 0.303712 1
4
 0.97399 0.297139 0.297139 1
4
 0.975084 0.299415 0.299415 1
4
 0.97766 0.302983 0.302983 1
4
 0.983055 0.307731 0.307731 1
4
 0.98416 0.30649 0.30649 1
4
 0.988092 0.303843 0.303843 1
4
 0.991928 0.308046 0.308046 1
4
 0.981512 0.299228 0.299228 1
4
 0.987592 0.307149 0.307149 1
4
 0.991705 0.309531 0.309531 1
4
 1 0.297069 0.297069 0.966664
4
 1 0.296374 0.296374 0.970526
4
 1 0.301019 0.301019 0.965797
4
 1 0.298001 0.298001 0.970908
4
 1 0.292705 0.292705 0.970852
4
 1 0.288945 0.288945 0.979284
4
 1 0.292019 0.292019 0.974731
4
 1 0.29044 0.29044 0.971888
4
 1 0.288224 0.288224 0.976483
4
 1 0.294172 0.294172 0.970853
4
 1 0.292582 0.292582 0.968021
4
 1 0.290394 0.290394 0.979284
4
 1 0.28662 0.28662 0.981045
4
 1 0.285347 0.285347 0.984798
4
 1 0.283225 0.283225 0.990788
4
 1 0.289013 0.289013 0.983749
4
 1 0.285844 0.285844 0.988177
4
 1 0.292089 0.292089 0.979175
4
 1 0.295095 0.295095 0.975115
4
 1 0.2845 0.2845 0.973088
4
 1 0.288218 0.288218 0.970688
4
 1 0.286019 0.286019 0.975277
4
 1 0.28305 0.28305 0.978019
4
 1 0.281435 0.281435 0.978787
4
 1 0.288103 0.288103 0.973636
4
 1 0.284635 0.284635 0.981981
4
 1 0.282938 0.282938 0.980989
4
 1 0.281681 0.281681 0.984742
4
 1 0.281263 0.281263 0.991734
4
 1 0.280943 0.280943 0.98962
4
 1 0.277447 0.277447 0.989508
4
 1 0.279267 0.279267 0.98862
4
 0.976237 0.287602 0.287602 1
4
 0.972845 0.283655 0.283655 1
4
 0.981955 0.290493 0.290493 1
4
 0.978543 0.286506 0.286506 1
4
 0.971644 0.281237 0.281237 1
4
 0.971588 0.286309 0.286309 1
4
 0.972298 0.284703 0.284703 1
4
 0.973499 0.28859 0.28859 1
4
 0.979036 0.292057 0.292057 1
4
 0.981404 0.291566 0.291566 1
4
 0.968212 0.28238 0.28238 1
4
 0.963223 0.281603 0.281603 1
4
 0.963331 0.279992 0.279992 1
4
 0.969408 0.286236 0.286236 1
4
 0.96593 0.284881 0.284881 1
4
 0.965607 0.277997 0.277997 1
4
 0.964035 0.278421 0.278421 1
4
 0.967724 0.278402 0.278402 1
4
 0.967336 0.30926 0.30926 1
4
 0.962622 0.304016 0.304016 1
4
 0.960301 0.304021 0.304021 1
4
 0.970274 0.30929 0.30929 1
4
 0.966359 0.306683 0.306683 1
4
 0.974588 0.312935 0.312935 1
4
 0.975792 0.315626 0.315626 1
4
 0.965113 0.301908 0.301908 1
4
 0.965546 0.304045 0.304045 1
4
 0.969894 0.305216 0.305216 1
4
 0.973768 0.310243 0.310243 1
4
 0.961219 0.299363 0.299363 1
4
 0.955193 0.293321 0.293321 1
4
 0.965547 0.300517 0.300517 1
4
 0.962516 0.296726 0.296726 1
4
 0.954604 0.291339 0.291339 1
4
 0.958902 0.293928 0.293928 1
4
 0.959331 0.301487 0.301487 1
4
 0.956481 0.297603 0.297603 1
4
 0.955622 0.295397 0.295397 1
4
 0.929177 0.2318 0.2318 1
4
 0.927092 0.232514 0.232514 1
4
 0.925688 0.229997 0.229997 1
4
 0.933465 0.235251 0.235251 1
4
 0.93294 0.236909 0.236909 1
4
 0.936404 0.238257 0.238257 1
4
 0.923819 0.227314 0.227314 1
4
 0.93158 0.232507 0.232507 1
4
 0.932156 0.231759 0.231759 1
4
 0.921746 0.228015 0.228015 1
4
 0.92444 0.232817 0.232817 1
4
 0.928967 0.234867 0.234867 1
4
 1 0.313748 0.313748 0.969604
4
 1 0.3146 0.3146 0.971021
4
 1 0.312065 0.312065 0.969876
4
 1 0.309158 0.309158 0.974242
4
 1 0.309738 0.309738 0.978464
4
 1 0.312552 0.312552 0.97479
4
 1 0.306849 0.306849 0.979948
4
 1 0.320419 0.320419 0.959746
4
 1 0.318046 0.318046 0.965801
4
 1 0.317151 0.317151 0.960878
4
 1 0.315484 0.315484 0.964662
4
 1 0.321289 0.321289 0.961149
4
 1 0.324107 0.324107 0.958239
4
 1 0.326866 0.326866 0.953623
4
 1 0.320384 0.320384 0.956249
4
 1 0.326161 0.326161 0.964231
4
 1 0.326937 0.326937 0.96061
4
 1 0.32972 0.32972 0.955983
4
 1 0.329128 0.329128 0.963474
4
 1 0.333095 0.333095 0.954428
4
 1 0.331887 0.331887 0.957972
4
 1 0.320944 0.320944 0.967919
4
 1 0.321707 0.321707 0.964284
4
 1 0.316834 0.316834 0.970967
4
 1 0.323759 0.323759 0.964989
4
 1 0.325929 0.325929 0.967866
4
 1 0.322103 0.322103 0.972551
4
 1 0.318855 0.318855 0.971677
4
 1 0.320123 0.320123 0.973151
4
 1 0.327292 0.327292 0.956734
4
 1 0.333457 0.333457 0.950577
4
 0.998193 0.281633 0.281633 1
4
 0.992939 0.276879 0.276879 1
4
 1 0.279948 0.279948 0.999674
4
 1 0.282537 0.282537 0.99704
4
 0.994446 0.2762 0.2762 1
4
 0.992436 0.279425 0.279425 1
4
 0.992715 0.278214 0.278214 1
4
 1 0.286316 0.286316 0.999563
4
 0.995841 0.283181 0.283181 1
4
 1 0.283963 0.283963 0.997264
4
 1 0.286088 0.286088 0.996928
4
 0.987212 0.274708 0.274708 1
4
 0.981574 0.270869 0.270869 1
4
 0.983504 0.274396 0.274396 1
4
 0.990321 0.279613 0.279613 1
4
 0.98185 0.269695 0.269695 1
4
 0.988988 0.272847 0.272847 1
4
 0.984887 0.270296 0.270296 1
4
 0.954119 0.29946 0.29946 1
4
 0.954173 0.297608 0.297608 1
4
 0.951285 0.295601 0.295601 1
4
 0.950484 0.291596 0.291596 1
4
 0.949045 0.287479 0.287479 1
4
 1 0.30568 0.30568 0.993803
4
 1 0.30649 0.30649 0.994808
4
 1 0.310609 0.310609 0.989127
4
 1 0.308783 0.308783 0.985855
4
 1 0.31085 0.31085 0.985855
4
 1 0.306283 0.306283 0.990127
4
 1 0.30375 0.30375 0.999006
4
 0.998077 0.298776 0.298776 1
4
 1 0.303544 0.303544 0.994305
4
 1 0.301047 0.301047 0.997716
4
 0.997292 0.299822 0.299822 1
4
 0.994774 0.302056 0.302056 1
4
 0.999814 0.30565 0.30565 1
4
 1 0.308648 0.308648 0.994306
4
 0.993547 0.299481 0.299481 1
4
 0.996284 0.300313 0.300313 1
4
 0.959067 0.277654 0.277654 1
4
 0.958097 0.280905 0.280905 1
4
 0.961655 0.282503 0.282503 1
4
 0.954339 0.276943 0.276943 1
4
 0.954768 0.275208 0.275208 1
4
 0.958907 0.272683 0.272683 1
4
 0.957346 0.273099 0.273099 1
4
 0.950544 0.267059 0.267059 1
4
 0.953055 0.270693 0.270693 1
4
 0.957831 0.269709 0.269709 1
4
 0.953003 0.267428 0.267428 1
4
 0.961009 0.273081 0.273081 1
4
 0.960739 0.275645 0.275645 1
4
 0.964415 0.275627 0.275627 1
4
 0.954876 0.273633 0.273633 1
4
 0.942948 0.238089 0.238089 1
4
 0.946874 0.241541 0.241541 1
4
 0.954615 0.246188 0.246188 1
4
 0.95333 0.24427 0.24427 1
4
 0.950123 0.24438 0.24438 1
4
 0.936458 0.235209 0.235209 1
4
 0.940357 0.23862 0.23862 1
4
 0.938826 0.238984 0.238984 1
4
 0.940938 0.237852 0.237852 1
4
 0.943318 0.241669 0.241669 1
4
 0.948097 0.244137 0.244137 1
4
 1 0.347221 0.347221 0.956201
4
 1 0.345029 0.345029 0.961208
4
 1 0.345801 0.345801 0.953895
4
 1 0.340421 0.340421 0.966077
4
 1 0.341069 0.341069 0.962071
4
 1 0.342838 0.342838 0.957651
4
 1 0.353044 0.353044 0.953146
4
 1 0.350814 0.350814 0.958137
4
 1 0.35385 0.35385 0.957223
4
 1 0.357623 0.357623 0.950154
4
 1 0.348306 0.348306 0.957545
4
 1 0.353671 0.353671 0.948341
4
 1 0.349086 0.349086 0.95026
4
 1 0.351751 0.351751 0.948181
4
 1 0.349102 0.349102 0.96164
4
 1 0.342809 0.342809 0.96825
4
 1 0.345296 0.345296 0.966404
4
 1 0.341484 0.341484 0.967434
4
 1 0.348284 0.348284 0.965482
4
 1 0.350449 0.350449 0.965103
4
 1 0.358258 0.358258 0.945364
4
 1 0.360151 0.360151 0.941656
4
 1 0.354913 0.354913 0.943985
4
 1 0.361572 0.361572 0.942873
4
 0.935401 0.25712 0.25712 1
4
 0.936871 0.26267 0.26267 1
4
 0.940615 0.261707 0.261707 1
4
 0.939611 0.263767 0.263767 1
4
 0.939189 0.261913 0.261913 1
4
 0.940351 0.259364 0.259364 1
4
 0.936348 0.253299 0.253299 1
4
 0.938453 0.256338 0.256338 1
4
 0.932831 0.252169 0.252169 1
4
 0.943893 0.27026 0.27026 1
4
 0.940825 0.267047 0.267047 1
4
 0.940402 0.269179 0.269179 1
4
 1 0.313255 0.313255 0.961849
4
 1 0.311609 0.311609 0.965637
4
 1 0.310324 0.310324 0.963091
4
 1 0.308706 0.308706 0.969984
4
 1 0.305528 0.305528 0.970474
4
 1 0.306117 0.306117 0.97222
4
 1 0.307837 0.307837 0.96504
4
 1 0.31545 0.31545 0.961147
4
 1 0.314149 0.314149 0.958614
4
 1 0.310869 0.310869 0.969277
4
 1 0.308716 0.308716 0.961794
4
 1 0.30539 0.30539 0.975884
4
 1 0.305673 0.305673 0.979343
4
 1 0.30221 0.30221 0.969928
4
 1 0.304494 0.304494 0.964497
4
 1 0.299721 0.299721 0.970364
4
 1 0.302246 0.302246 0.976377
4
 1 0.303945 0.303945 0.969166
4
 1 0.298547 0.298547 0.980497
4
 1 0.298328 0.298328 0.978352
4
 1 0.29918 0.29918 0.975061
4
 1 0.299122 0.299122 0.982261
4
 1 0.303109 0.303109 0.9816
4
 1 0.300406 0.300406 0.983034
4
 0.971649 0.262655 0.262655 1
4
 0.968489 0.261706 0.261706 1
4
 0.970341 0.259741 0.259741 1
4
 0.965775 0.257403 0.257403 1
4
 0.96285 0.256522 0.256522 1
4
 0.963715 0.258868 0.258868 1
4
 0.973068 0.264964 0.264964 1
4
 0.978163 0.269388 0.269388 1
4
 0.974928 0.262975 0.262975 1
4
 0.979263 0.266519 0.266519 1
4
 0.969686 0.265279 0.265279 1
4
 0.974762 0.269708 0.269708 1
4
 0.964689 0.263668 0.263668 1
4
 0.972138 0.269536 0.269536 1
4
 0.964906 0.262403 0.262403 1
4
 0.974982 0.268414 0.268414 1
4
 0.965123 0.261144 0.261144 1
4
 0.984167 0.277315 0.277315 1
4
 0.986879 0.278085 0.278085 1
4
 0.977448 0.272721 0.272721 1
4
 0.976839 0.291982 0.291982 1
4
 0.973827 0.291333 0.291333 1
4
 0.96783 0.287151 0.287151 1
4
 0.985932 0.299381 0.299381 1
4
 0.989537 0.301447 0.301447 1
4
 0.993322 0.307518 0.307518 1
4
 0.982891 0.298715 0.298715 1
4
 0.994382 0.306647 0.306647 1
4
 0.985987 0.297529 0.297529 1
4
 0.979366 0.294833 0.294833 1
4
 0.984771 0.294993 0.294993 1
4
 0.994607 0.303147 0.303147 1
4
 0.994439 0.30475 0.30475 1
4
 0.988372 0.297029 0.297029 1
4
 1 0.315197 0.315197 0.99828
4
 1 0.313969 0.313969 0.997215
4
 1 0.315736 0.315736 0.992801
4
 1 0.319526 0.319526 0.994588
4
 1 0.316788 0.316788 0.998505
4
 1 0.322388 0.322388 0.989963
4
 1 0.318626 0.318626 0.989518
4
 1 0.320858 0.320858 0.988796
4
 0.998242 0.310889 0.310889 1
4
 0.996953 0.313275 0.313275 1
4
 0.96268 0.286916 0.286916 1
4
 0.972242 0.292751 0.292751 1
4
 0.966255 0.288549 0.288549 1
4
 0.969243 0.293565 0.293565 1
4
 0.966308 0.292072 0.292072 1
4
 0.960791 0.284175 0.284175 1
4
 0.953482 0.278582 0.278582 1
4
 0.960844 0.287644 0.287644 1
4
 0.956806 0.284348 0.284348 1
4
 0.953267 0.28086 0.28086 1
4
 0.970333 0.289954 0.289954 1
4
 1 0.34589 0.34589 0.947328
4
 1 0.350312 0.350312 0.945894
4
 1 0.344679 0.344679 0.951701
4
 1 0.340482 0.340482 0.947859
4
 1 0.342926 0.342926 0.951059
4
 1 0.341322 0.341322 0.950365
4
 0.946654 0.271388 0.271388 1
4
 0.950169 0.272933 0.272933 1
4
 0.946228 0.273555 0.273555 1
4
 0.949528 0.276899 0.276899 1
4
 0.94416 0.264198 0.264198 1
4
 0.948091 0.267582 0.267582 1
4
 0.948039 0.264355 0.264355 1
4
 0.943684 0.260911 0.260911 1
4
 0.943153 0.266277 0.266277 1
4
 0.94708 0.269688 0.269688 1
4
 0.946655 0.267793 0.267793 1
4
 1 0.339281 0.339281 0.977208
4
 1 0.336117 0.336117 0.97869
4
 1 0.342007 0.342007 0.972118
4
 1 0.338231 0.338231 0.973155
4
 1 0.335857 0.335857 0.981938
4
 1 0.341136 0.341136 0.980286
4
 1 0.341742 0.341742 0.975344
4
 1 0.337131 0.337131 0.985031
4
 1 0.33467 0.33467 0.986248
4
 1 0.331549 0.331549 0.987744
4
 1 0.329891 0.329891 0.984808
4
 1 0.329253 0.329253 0.988687
4
 1 0.334817 0.334817 0.977866
4
 1 0.331884 0.331884 0.980394
4
 1 0.343877 0.343877 0.97518
4
 1 0.346014 0.346014 0.974798
4
 1 0.339237 0.339237 0.984866
4
 1 0.341217 0.341217 0.984755
4
 1 0.346629 0.346629 0.969883
4
 0.964255 0.26533 0.26533 1
4
 0.959448 0.261895 0.261895 1
4
 0.956007 0.257202 0.257202 1
4
 0.954291 0.257235 0.257235 1
4
 0.96015 0.259558 0.259558 1
4
 0.963768 0.266434 0.266434 1
4
 0.964363 0.268247 0.268247 1
4
 0.971701 0.271235 0.271235 1
4
 0.97012 0.272101 0.272101 1
4
 0.960147 0.267912 0.267912 1
4
 0.955307 0.266978 0.266978 1
4
 0.954503 0.264681 0.264681 1
4
 0.966856 0.274045 0.274045 1
4
 0.965879 0.271762 0.271762 1
4
 0.963333 0.272621 0.272621 1
4
 0.959555 0.264774 0.264774 1
4
 0.954987 0.260526 0.260526 1
4
 0.953808 0.258305 0.258305 1
4
 0.954503 0.26336 0.26336 1
4
 0.955576 0.262298 0.262298 1
4
 0.96588 0.270406 0.270406 1
4
 0.926778 0.237342 0.237342 1
4
 0.931577 0.243212 0.243212 1
4
 0.932415 0.241379 0.241379 1
4
 0.933253 0.243181 0.243181 1
4
 0.928392 0.241995 0.241995 1
4
 0.930272 0.237217 0.237217 1
4
 0.931369 0.239145 0.239145 1
4
 0.937033 0.246889 0.246889 1
4
 0.936454 0.249343 0.249343 1
4
 0.939773 0.250412 0.250412 1
4
 0.932152 0.245685 0.245685 1
4
 0.93593 0.241251 0.241251 1
4
 0.938299 0.240667 0.240667 1
4
 0.939986 0.243461 0.243461 1
4
 0.937876 0.245028 0.245028 1
4
 0.941095 0.24544 0.24544 1
4
 0.941463 0.25038 0.25038 1
4
 0.94194 0.247273 0.247273 1
4
 0.943687 0.25026 0.25026 1
4
 0.986711 0.281895 0.281895 1
4
 0.990987 0.282587 0.282587 1
4
 0.981517 0.277137 0.277137 1
4
 0.991933 0.286258 0.286258 1
4
 0.995616 0.287407 0.287407 1
4
 0.979975 0.277226 0.277226 1
4
 0.986212 0.284962 0.284962 1
4
 0.990374 0.28635 0.28635 1
4
 0.982895 0.281783 0.281783 1
4
 1 0.292259 0.292259 0.991737
4
 0.998304 0.286634 0.286634 1
4
 1 0.288862 0.288862 0.994469
4
 1 0.29066 0.29066 0.997042
4
 1 0.295245 0.295245 0.984248
4
 1 0.292026 0.292026 0.989123
4
 1 0.293844 0.293844 0.991682
4
 1 0.296728 0.296728 0.987182
4
 0.99836 0.288205 0.288205 1
4
 0.977721 0.277026 0.277026 1
4
 0.97323 0.273417 0.273417 1
4
 0.943476 0.244847 0.244847 1
4
 0.946554 0.244509 0.244509 1
4
 0.946395 0.245802 0.245802 1
4
 0.972896 0.299338 0.299338 1
4
 0.967394 0.294309 0.294309 1
4
 0.976343 0.305167 0.305167 1
4
 0.96995 0.297817 0.297817 1
4
 0.969841 0.299531 0.299531 1
4
 0.980849 0.307652 0.307652 1
4
 0.973769 0.305623 0.305623 1
4
 0.970712 0.301767 0.301767 1
4
 0.98173 0.309949 0.309949 1
4
 0.979747 0.310965 0.310965 1
4
 0.967284 0.299978 0.299978 1
4
 0.976287 0.309121 0.309121 1
4
 0.974206 0.308814 0.308814 1
4
 0.964356 0.294498 0.294498 1
4
 0.960412 0.289458 0.289458 1
4
 0.960735 0.291721 0.291721 1
4
 0.960627 0.293401 0.293401 1
4
 0.998252 0.272069 0.272069 1
4
 0.999654 0.274334 0.274334 1
4
 1 0.27672 0.27672 0.99441
4
 0.993219 0.270218 0.270218 1
4
 0.987824 0.266173 0.266173 1
4
 0.998419 0.276107 0.276107 1
4
 1 0.276229 0.276229 0.999448
4
 0.99255 0.272323 0.272323 1
4
 0.989212 0.268388 0.268388 1
4
 1 0.278853 0.278853 0.99564
4
 1 0.281754 0.281754 0.995137
4
 0.996346 0.275961 0.275961 1
4
 1 0.332807 0.332807 0.990856
4
 1 0.332843 0.332843 0.994479
4
 1 0.337211 0.337211 0.989522
4
 1 0.330414 0.330414 0.995708
4
 1 0.327333 0.327333 0.997218
4
 1 0.32809 0.32809 0.993027
4
 1 0.334786 0.334786 0.994368
4
 1 0.332639 0.332639 0.998901
4
 0.999136 0.327085 0.327085 1
4
 0.996167 0.325574 0.325574 1
4
 0.995216 0.326802 0.326802 1
4
 1 0.337004 0.337004 0.993922
4
 0.996613 0.331727 0.331727 1
4
 0.995663 0.329116 0.329116 1
4
 0.943208 0.255952 0.255952 1
4
 0.939666 0.25481 0.25481 1
4
 0.940881 0.252869 0.252869 1
4
 0.933252 0.248095 0.248095 1
4
 0.934037 0.250666 0.250666 1
4
 0.949691 0.262442 0.262442 1
4
 0.946125 0.261271 0.261271 1
4
 0.945329 0.259023 0.259023 1
4
 0.949959 0.259135 0.259135 1
4
 0.946551 0.25705 0.25705 1
4
 0.947615 0.256013 0.256013 1
4
 0.949853 0.25589 0.25589 1
4
 0.946446 0.253831 0.253831 1
4
 0.999477 0.308377 0.308377 1
4
 1 0.310275 0.310275 0.996095
4
 1 0.309815 0.309815 0.994474
4
 1 0.311969 0.311969 0.996263
4
 1 0.31326 0.31326 0.990239
4
 1 0.316597 0.316597 0.988573
4
 1 0.316127 0.316127 0.986964
4
 1 0.316978 0.316978 0.982541
4
 1 0.313037 0.313037 0.985358
4
 1 0.31503 0.31503 0.983147
4
 0.970451 0.256538 0.256538 1
4
 0.963826 0.251868 0.251868 1
4
 0.972142 0.255959 0.255959 1
4
 0.962528 0.249906 0.249906 1
4
 0.966969 0.255324 0.255324 1
4
 0.975313 0.25947 0.25947 1
4
 0.969034 0.257717 0.257717 1
4
 0.977944 0.263562 0.263562 1
4
 0.978714 0.262205 0.262205 1
4
 0.959075 0.248723 0.248723 1
4
 0.962419 0.253026 0.253026 1
4
 0.955848 0.248835 0.248835 1
4
 0.959505 0.25216 0.25216 1
4
 0.98042 0.261613 0.261613 1
4
 0.961554 0.254523 0.254523 1
4
 0.994658 0.322049 0.322049 1
4
 0.991926 0.317961 0.317961 1
4
 0.996895 0.321059 0.321059 1
4
 1 0.325066 0.325066 0.99817
4
 0.988978 0.316491 0.316491 1
4
 0.98698 0.317528 0.317528 1
4
 0.990756 0.321771 0.321771 1
4
 0.98737 0.311213 0.311213 1
4
 0.991202 0.315518 0.315518 1
4
 0.984269 0.313497 0.313497 1
4
 1 0.318548 0.318548 0.999346
4
 1 0.320559 0.320559 0.999628
4
 1 0.324179 0.324179 0.990798
4
 1 0.323552 0.323552 0.9947
4
 0.992596 0.312363 0.312363 1
4
 0.992316 0.314246 0.314246 1
4
 0.996448 0.316683 0.316683 1
4
 1 0.322805 0.322805 0.998899
4
 1 0.32645 0.32645 0.990075
4
 1 0.329058 0.329058 0.981771
4
 1 0.325531 0.325531 0.985029
4
 0.94697 0.280905 0.280905 1
4
 0.949632 0.285124 0.285124 1
4
 0.953587 0.285426 0.285426 1
4
 0.95006 0.281925 0.281925 1
4
 0.953908 0.287658 0.287658 1
4
 0.945801 0.281311 0.281311 1
4
 0.942939 0.274795 0.274795 1
4
 0.946227 0.278154 0.278154 1
4
 0.95273 0.288074 0.288074 1
4
 0.990707 0.291005 0.291005 1
4
 0.994888 0.292422 0.292422 1
4
 0.998358 0.296985 0.296985 1
4
 0.99338 0.295101 0.295101 1
4
 0.991431 0.289372 0.289372 1
4
 0.983944 0.284757 0.284757 1
4
 0.980414 0.283409 0.283409 1
4
 0.983777 0.287219 0.287219 1
4
 0.989928 0.292024 0.292024 1
4
 0.999312 0.291948 0.291948 1
4
 1 0.294437 0.294437 0.999846
4
 0.999087 0.295319 0.295319 1
4
 1 0.337565 0.337565 0.968303
4
 1 0.333972 0.333972 0.97485
4
 1 0.331552 0.331552 0.965153
4
 1 0.329965 0.329965 0.969335
4
 1 0.326951 0.326951 0.972115
4
 1 0.325033 0.325033 0.971787
4
 1 0.331651 0.331651 0.961583
4
 1 0.336213 0.336213 0.963746
4
 1 0.334605 0.334605 0.967922
4
 1 0.334608 0.334608 0.970807
4
 1 0.339963 0.339963 0.959858
4
 1 0.332631 0.332631 0.967378
4
 1 0.337957 0.337957 0.959319
4
 1 0.336376 0.336376 0.958618
4
 1 0.334331 0.334331 0.959641
4
 1 0.331043 0.331043 0.974466
4
 1 0.328015 0.328015 0.974356
4
 1 0.327494 0.327494 0.977699
4
 1 0.327497 0.327497 0.980614
4
 1 0.322245 0.322245 0.981218
4
 1 0.320355 0.320355 0.980887
4
 1 0.321733 0.321733 0.984585
4
 1 0.323113 0.323113 0.97682
4
 1 0.324503 0.324503 0.980503
4
 1 0.319243 0.319243 0.977094
4
 0.948628 0.250649 0.250649 1
4
 0.946925 0.250681 0.250681 1
4
 0.948096 0.248656 0.248656 1
4
 0.950387 0.253676 0.253676 1
4
 0.951563 0.251627 0.251627 1
4
 0.956222 0.255968 0.255968 1
4
 0.95119 0.248313 0.248313 1
4
 0.954989 0.250307 0.250307 1
4
 0.954828 0.251631 0.251631 1
4
 0.955686 0.253932 0.253932 1
4
 0.977117 0.280247 0.280247 1
4
 0.97613 0.277911 0.277911 1
4
 0.972628 0.276596 0.276596 1
4
 0.976951 0.28267 0.28267 1
4
 0.970064 0.277471 0.277471 1
4
 1 0.311938 0.311938 0.97841
4
 1 0.311197 0.311197 0.982098
4
 1 0.306625 0.306625 0.986353
4
 1 0.306246 0.306246 0.983587
4
 1 0.314025 0.314025 0.97841
4
 1 0.316025 0.316025 0.976216
4
 1 0.315274 0.315274 0.979895
4
 1 0.292856 0.292856 0.982866
4
 1 0.287513 0.287513 0.988067
4
 1 0.293692 0.293692 0.97956
4
 1 0.289664 0.289664 0.987735
4
 1 0.295871 0.295871 0.978791
4
 1 0.291813 0.291813 0.986959
4
 1 0.286488 0.286488 0.992181
4
 1 0.294525 0.294525 0.996147
4
 1 0.295105 0.295105 0.992462
4
 1 0.297992 0.297992 0.996372
4
 1 0.300093 0.300093 0.990181
4
 1 0.297416 0.297416 0.991627
4
 1 0.30164 0.30164 0.994025
4
 1 0.303766 0.303766 0.987849
4
 1 0.301267 0.301267 0.991238
4
 1 0.300684 0.300684 0.986518
4
 0.990755 0.325548 0.325548 1
4
 0.986092 0.323696 0.323696 1
4
 0.986038 0.318727 0.318727 1
4
 0.980186 0.314212 0.314212 1
4
 0.983936 0.31841 0.31841 1
4
 0.985152 0.321147 0.321147 1
4
 0.979306 0.316598 0.316598 1
4
 1 0.337703 0.337703 0.951539
4
 1 0.335649 0.335649 0.952554
4
 1 0.340127 0.340127 0.954751
4
 1 0.336477 0.336477 0.955072
4
 0.986382 0.269634 0.269634 1
4
 0.987158 0.268246 0.268246 1
4
 0.983065 0.265738 0.265738 1
4
 0.952838 0.28263 0.28263 1
4
 0.956698 0.288379 0.288379 1
4
 0.946015 0.275792 0.275792 1
4
 0.983721 0.290455 0.290455 1
4
 0.989872 0.295315 0.295315 1
4
 0.973392 0.281201 0.281201 1
4
 0.986432 0.291262 0.291262 1
4
 0.929747 0.246988 0.246988 1
4
 0.959504 0.255972 0.255972 1
1
 1

